data/lp_files/pEFS/52_6.lp
\ Model foo
\ LP format - for model browsing. Use MPS format to capture full model detail.
Minimize
  z
Subject To
 allocateEach[1]: x[1,1] + x[2,1] + x[3,1] = 1
 allocateEach[2]: x[1,2] + x[2,2] + x[3,2] = 1
 allocateEach[3]: x[1,3] + x[2,3] + x[3,3] = 1
 allocateEach[4]: x[1,4] + x[2,4] + x[3,4] = 1
 allocateEach[5]: x[1,5] + x[2,5] + x[3,5] = 1
 allocateEach[6]: x[1,6] + x[2,6] + x[3,6] = 1
 allocateEach[7]: x[1,7] + x[2,7] + x[3,7] = 1
 allocateEach[8]: x[1,8] + x[2,8] + x[3,8] = 1
 allocateEach[9]: x[1,9] + x[2,9] + x[3,9] = 1
 allocateEach[10]: x[1,10] + x[2,10] + x[3,10] = 1
 allocateEach[11]: x[1,11] + x[2,11] + x[3,11] = 1
 allocateEach[12]: x[1,12] + x[2,12] + x[3,12] = 1
 allocateAllCash: cashProportion[1] + cashProportion[2] + cashProportion[3]
   = 1
 findWorstP[1,2]: z + 0.0591497227356747 cashProportion[1]
   - 0.0591497227356747 cashProportion[2] + 0.0856487985212569 x[1,1]
   + 0.1305286506469501 x[1,2] + 0.0232310536044362 x[1,3]
   + 0.1350240295748614 x[1,4] + 0.0908687615526802 x[1,5]
   + 0.1183733826247689 x[1,6] + 0.0979075785582255 x[1,7]
   + 0.00600369685767098 x[1,8] + 0.1412051756007394 x[1,9]
   + 1.6266173752310537e-04 x[1,10] + 0.0731977818853974 x[1,11]
   + 0.0386987060998151 x[1,12] - 0.0856487985212569 x[2,1]
   - 0.1305286506469501 x[2,2] - 0.0232310536044362 x[2,3]
   - 0.1350240295748614 x[2,4] - 0.0908687615526802 x[2,5]
   - 0.1183733826247689 x[2,6] - 0.0979075785582255 x[2,7]
   - 0.00600369685767098 x[2,8] - 0.1412051756007394 x[2,9]
   - 1.6266173752310537e-04 x[2,10] - 0.0731977818853974 x[2,11]
   - 0.0386987060998151 x[2,12] >= 0
 findWorstP[1,3]: z + 0.0591497227356747 cashProportion[1]
   - 0.0591497227356747 cashProportion[3] + 0.0856487985212569 x[1,1]
   + 0.1305286506469501 x[1,2] + 0.0232310536044362 x[1,3]
   + 0.1350240295748614 x[1,4] + 0.0908687615526802 x[1,5]
   + 0.1183733826247689 x[1,6] + 0.0979075785582255 x[1,7]
   + 0.00600369685767098 x[1,8] + 0.1412051756007394 x[1,9]
   + 1.6266173752310537e-04 x[1,10] + 0.0731977818853974 x[1,11]
   + 0.0386987060998151 x[1,12] - 0.0856487985212569 x[3,1]
   - 0.1305286506469501 x[3,2] - 0.0232310536044362 x[3,3]
   - 0.1350240295748614 x[3,4] - 0.0908687615526802 x[3,5]
   - 0.1183733826247689 x[3,6] - 0.0979075785582255 x[3,7]
   - 0.00600369685767098 x[3,8] - 0.1412051756007394 x[3,9]
   - 1.6266173752310537e-04 x[3,10] - 0.0731977818853974 x[3,11]
   - 0.0386987060998151 x[3,12] >= 0
 findWorstP[2,1]: z - 0.0640830516349188 cashProportion[1]
   + 0.0640830516349188 cashProportion[2] - 0.0344125987279514 x[1,1]
   - 0.1397491148528493 x[1,2] - 0.052932600650443 x[1,3]
   - 0.0898284176292475 x[1,4] - 0.1577083900735353 x[1,5]
   - 0.0912542655281244 x[1,6] - 0.0342844326246816 x[1,7]
   - 0.1119210496803858 x[1,8] - 0.0810810810810811 x[1,9]
   - 0.0345888271199474 x[1,10] - 0.1013954084493503 x[1,11]
   - 0.00676076194748394 x[1,12] + 0.0344125987279514 x[2,1]
   + 0.1397491148528493 x[2,2] + 0.052932600650443 x[2,3]
   + 0.0898284176292475 x[2,4] + 0.1577083900735353 x[2,5]
   + 0.0912542655281244 x[2,6] + 0.0342844326246816 x[2,7]
   + 0.1119210496803858 x[2,8] + 0.0810810810810811 x[2,9]
   + 0.0345888271199474 x[2,10] + 0.1013954084493503 x[2,11]
   + 0.00676076194748394 x[2,12] >= 0
 findWorstP[2,3]: z + 0.0640830516349188 cashProportion[2]
   - 0.0640830516349188 cashProportion[3] + 0.0344125987279514 x[2,1]
   + 0.1397491148528493 x[2,2] + 0.052932600650443 x[2,3]
   + 0.0898284176292475 x[2,4] + 0.1577083900735353 x[2,5]
   + 0.0912542655281244 x[2,6] + 0.0342844326246816 x[2,7]
   + 0.1119210496803858 x[2,8] + 0.0810810810810811 x[2,9]
   + 0.0345888271199474 x[2,10] + 0.1013954084493503 x[2,11]
   + 0.00676076194748394 x[2,12] - 0.0344125987279514 x[3,1]
   - 0.1397491148528493 x[3,2] - 0.052932600650443 x[3,3]
   - 0.0898284176292475 x[3,4] - 0.1577083900735353 x[3,5]
   - 0.0912542655281244 x[3,6] - 0.0342844326246816 x[3,7]
   - 0.1119210496803858 x[3,8] - 0.0810810810810811 x[3,9]
   - 0.0345888271199474 x[3,10] - 0.1013954084493503 x[3,11]
   - 0.00676076194748394 x[3,12] >= 0
 findWorstP[3,1]: z - 0.0673049418653564 cashProportion[1]
   + 0.0673049418653564 cashProportion[3] - 0.018306944187377 x[1,1]
   - 0.0907607141054332 x[1,2] - 0.0846359643956857 x[1,3]
   - 0.0239437330686006 x[1,4] - 0.1645101041543975 x[1,5]
   - 0.0550554424458616 x[1,6] - 0.0138648180242634 x[1,7]
   - 0.1214349413605694 x[1,8] - 0.0635358651208965 x[1,9]
   - 0.0652016624320641 x[1,10] - 0.0734128653396375 x[1,11]
   - 0.1580320034998569 x[1,12] + 0.018306944187377 x[3,1]
   + 0.0907607141054332 x[3,2] + 0.0846359643956857 x[3,3]
   + 0.0239437330686006 x[3,4] + 0.1645101041543975 x[3,5]
   + 0.0550554424458616 x[3,6] + 0.0138648180242634 x[3,7]
   + 0.1214349413605694 x[3,8] + 0.0635358651208965 x[3,9]
   + 0.0652016624320641 x[3,10] + 0.0734128653396375 x[3,11]
   + 0.1580320034998569 x[3,12] >= 0
 findWorstP[3,2]: z - 0.0673049418653564 cashProportion[2]
   + 0.0673049418653564 cashProportion[3] - 0.018306944187377 x[2,1]
   - 0.0907607141054332 x[2,2] - 0.0846359643956857 x[2,3]
   - 0.0239437330686006 x[2,4] - 0.1645101041543975 x[2,5]
   - 0.0550554424458616 x[2,6] - 0.0138648180242634 x[2,7]
   - 0.1214349413605694 x[2,8] - 0.0635358651208965 x[2,9]
   - 0.0652016624320641 x[2,10] - 0.0734128653396375 x[2,11]
   - 0.1580320034998569 x[2,12] + 0.018306944187377 x[3,1]
   + 0.0907607141054332 x[3,2] + 0.0846359643956857 x[3,3]
   + 0.0239437330686006 x[3,4] + 0.1645101041543975 x[3,5]
   + 0.0550554424458616 x[3,6] + 0.0138648180242634 x[3,7]
   + 0.1214349413605694 x[3,8] + 0.0635358651208965 x[3,9]
   + 0.0652016624320641 x[3,10] + 0.0734128653396375 x[3,11]
   + 0.1580320034998569 x[3,12] >= 0
Bounds
 z <= 1
 -infinity <= cashProportion[1] <= 1
 -infinity <= cashProportion[2] <= 1
 -infinity <= cashProportion[3] <= 1
Binaries
 x[1,1] x[1,2] x[1,3] x[1,4] x[1,5] x[1,6] x[1,7] x[1,8] x[1,9] x[1,10]
 x[1,11] x[1,12] x[2,1] x[2,2] x[2,3] x[2,4] x[2,5] x[2,6] x[2,7] x[2,8]
 x[2,9] x[2,10] x[2,11] x[2,12] x[3,1] x[3,2] x[3,3] x[3,4] x[3,5] x[3,6]
 x[3,7] x[3,8] x[3,9] x[3,10] x[3,11] x[3,12]
End
