data/mps_files/pEFS/52_6.mps
NAME foo
ROWS
 N  OBJ
 E  allocateEach[1]
 E  allocateEach[2]
 E  allocateEach[3]
 E  allocateEach[4]
 E  allocateEach[5]
 E  allocateEach[6]
 E  allocateEach[7]
 E  allocateEach[8]
 E  allocateEach[9]
 E  allocateEach[10]
 E  allocateEach[11]
 E  allocateEach[12]
 E  allocateAllCash
 G  findWorstP[1,2]
 G  findWorstP[1,3]
 G  findWorstP[2,1]
 G  findWorstP[2,3]
 G  findWorstP[3,1]
 G  findWorstP[3,2]
COLUMNS
    z         OBJ       1
    z         findWorstP[1,2]  1
    z         findWorstP[1,3]  1
    z         findWorstP[2,1]  1
    z         findWorstP[2,3]  1
    z         findWorstP[3,1]  1
    z         findWorstP[3,2]  1
    cashProportion[1]  allocateAllCash  1
    cashProportion[1]  findWorstP[1,2]  5.9149722735674676e-02
    cashProportion[1]  findWorstP[1,3]  5.9149722735674676e-02
    cashProportion[1]  findWorstP[2,1]  -6.4083051634918842e-02
    cashProportion[1]  findWorstP[3,1]  -6.7304941865356446e-02
    cashProportion[2]  allocateAllCash  1
    cashProportion[2]  findWorstP[1,2]  -5.9149722735674676e-02
    cashProportion[2]  findWorstP[2,1]  6.4083051634918842e-02
    cashProportion[2]  findWorstP[2,3]  6.4083051634918842e-02
    cashProportion[2]  findWorstP[3,2]  -6.7304941865356446e-02
    cashProportion[3]  allocateAllCash  1
    cashProportion[3]  findWorstP[1,3]  -5.9149722735674676e-02
    cashProportion[3]  findWorstP[2,3]  -6.4083051634918842e-02
    cashProportion[3]  findWorstP[3,1]  6.7304941865356446e-02
    cashProportion[3]  findWorstP[3,2]  6.7304941865356446e-02
    MARKER    'MARKER'                 'INTORG'
    x[1,1]    allocateEach[1]  1
    x[1,1]    findWorstP[1,2]  8.5648798521256925e-02
    x[1,1]    findWorstP[1,3]  8.5648798521256925e-02
    x[1,1]    findWorstP[2,1]  -3.4412598727951417e-02
    x[1,1]    findWorstP[3,1]  -1.8306944187376953e-02
    x[1,2]    allocateEach[2]  1
    x[1,2]    findWorstP[1,2]  1.3052865064695007e-01
    x[1,2]    findWorstP[1,3]  1.3052865064695007e-01
    x[1,2]    findWorstP[2,1]  -1.3974911485284927e-01
    x[1,2]    findWorstP[3,1]  -9.0760714105433168e-02
    x[1,3]    allocateEach[3]  1
    x[1,3]    findWorstP[1,2]  2.3231053604436225e-02
    x[1,3]    findWorstP[1,3]  2.3231053604436225e-02
    x[1,3]    findWorstP[2,1]  -5.2932600650442967e-02
    x[1,3]    findWorstP[3,1]  -8.4635964395685728e-02
    x[1,4]    allocateEach[4]  1
    x[1,4]    findWorstP[1,2]  1.3502402957486137e-01
    x[1,4]    findWorstP[1,3]  1.3502402957486137e-01
    x[1,4]    findWorstP[2,1]  -8.9828417629247481e-02
    x[1,4]    findWorstP[3,1]  -2.3943733068600558e-02
    x[1,5]    allocateEach[5]  1
    x[1,5]    findWorstP[1,2]  9.0868761552680213e-02
    x[1,5]    findWorstP[1,3]  9.0868761552680213e-02
    x[1,5]    findWorstP[2,1]  -1.5770839007353527e-01
    x[1,5]    findWorstP[3,1]  -1.6451010415439751e-01
    x[1,6]    allocateEach[6]  1
    x[1,6]    findWorstP[1,2]  1.1837338262476893e-01
    x[1,6]    findWorstP[1,3]  1.1837338262476893e-01
    x[1,6]    findWorstP[2,1]  -9.1254265528124434e-02
    x[1,6]    findWorstP[3,1]  -5.5055442445861573e-02
    x[1,7]    allocateEach[7]  1
    x[1,7]    findWorstP[1,2]  0.0979075785582255
    x[1,7]    findWorstP[1,3]  0.0979075785582255
    x[1,7]    findWorstP[2,1]  -3.4284432624681581e-02
    x[1,7]    findWorstP[3,1]  -1.3864818024263429e-02
    x[1,8]    allocateEach[8]  1
    x[1,8]    findWorstP[1,2]  6.0036968576709787e-03
    x[1,8]    findWorstP[1,3]  6.0036968576709787e-03
    x[1,8]    findWorstP[2,1]  -1.1192104968038576e-01
    x[1,8]    findWorstP[3,1]  -1.2143494136056937e-01
    x[1,9]    allocateEach[9]  1
    x[1,9]    findWorstP[1,2]  1.4120517560073936e-01
    x[1,9]    findWorstP[1,3]  1.4120517560073936e-01
    x[1,9]    findWorstP[2,1]  -8.1081081081081058e-02
    x[1,9]    findWorstP[3,1]  -6.3535865120896484e-02
    x[1,10]   allocateEach[10]  1
    x[1,10]   findWorstP[1,2]  1.6266173752310537e-04
    x[1,10]   findWorstP[1,3]  1.6266173752310537e-04
    x[1,10]   findWorstP[2,1]  -3.4588827119947443e-02
    x[1,10]   findWorstP[3,1]  -6.5201662432064059e-02
    x[1,11]   allocateEach[11]  1
    x[1,11]   findWorstP[1,2]  0.0731977818853974
    x[1,11]   findWorstP[1,3]  0.0731977818853974
    x[1,11]   findWorstP[2,1]  -1.0139540844935034e-01
    x[1,11]   findWorstP[3,1]  -7.3412865339637548e-02
    x[1,12]   allocateEach[12]  1
    x[1,12]   findWorstP[1,2]  3.8698706099815149e-02
    x[1,12]   findWorstP[1,3]  3.8698706099815149e-02
    x[1,12]   findWorstP[2,1]  -6.7607619474839382e-03
    x[1,12]   findWorstP[3,1]  -1.5803200349985694e-01
    x[2,1]    allocateEach[1]  1
    x[2,1]    findWorstP[1,2]  -8.5648798521256925e-02
    x[2,1]    findWorstP[2,1]  3.4412598727951417e-02
    x[2,1]    findWorstP[2,3]  3.4412598727951417e-02
    x[2,1]    findWorstP[3,2]  -1.8306944187376953e-02
    x[2,2]    allocateEach[2]  1
    x[2,2]    findWorstP[1,2]  -1.3052865064695007e-01
    x[2,2]    findWorstP[2,1]  1.3974911485284927e-01
    x[2,2]    findWorstP[2,3]  1.3974911485284927e-01
    x[2,2]    findWorstP[3,2]  -9.0760714105433168e-02
    x[2,3]    allocateEach[3]  1
    x[2,3]    findWorstP[1,2]  -2.3231053604436225e-02
    x[2,3]    findWorstP[2,1]  5.2932600650442967e-02
    x[2,3]    findWorstP[2,3]  5.2932600650442967e-02
    x[2,3]    findWorstP[3,2]  -8.4635964395685728e-02
    x[2,4]    allocateEach[4]  1
    x[2,4]    findWorstP[1,2]  -1.3502402957486137e-01
    x[2,4]    findWorstP[2,1]  8.9828417629247481e-02
    x[2,4]    findWorstP[2,3]  8.9828417629247481e-02
    x[2,4]    findWorstP[3,2]  -2.3943733068600558e-02
    x[2,5]    allocateEach[5]  1
    x[2,5]    findWorstP[1,2]  -9.0868761552680213e-02
    x[2,5]    findWorstP[2,1]  1.5770839007353527e-01
    x[2,5]    findWorstP[2,3]  1.5770839007353527e-01
    x[2,5]    findWorstP[3,2]  -1.6451010415439751e-01
    x[2,6]    allocateEach[6]  1
    x[2,6]    findWorstP[1,2]  -1.1837338262476893e-01
    x[2,6]    findWorstP[2,1]  9.1254265528124434e-02
    x[2,6]    findWorstP[2,3]  9.1254265528124434e-02
    x[2,6]    findWorstP[3,2]  -5.5055442445861573e-02
    x[2,7]    allocateEach[7]  1
    x[2,7]    findWorstP[1,2]  -0.0979075785582255
    x[2,7]    findWorstP[2,1]  3.4284432624681581e-02
    x[2,7]    findWorstP[2,3]  3.4284432624681581e-02
    x[2,7]    findWorstP[3,2]  -1.3864818024263429e-02
    x[2,8]    allocateEach[8]  1
    x[2,8]    findWorstP[1,2]  -6.0036968576709787e-03
    x[2,8]    findWorstP[2,1]  1.1192104968038576e-01
    x[2,8]    findWorstP[2,3]  1.1192104968038576e-01
    x[2,8]    findWorstP[3,2]  -1.2143494136056937e-01
    x[2,9]    allocateEach[9]  1
    x[2,9]    findWorstP[1,2]  -1.4120517560073936e-01
    x[2,9]    findWorstP[2,1]  8.1081081081081058e-02
    x[2,9]    findWorstP[2,3]  8.1081081081081058e-02
    x[2,9]    findWorstP[3,2]  -6.3535865120896484e-02
    x[2,10]   allocateEach[10]  1
    x[2,10]   findWorstP[1,2]  -1.6266173752310537e-04
    x[2,10]   findWorstP[2,1]  3.4588827119947443e-02
    x[2,10]   findWorstP[2,3]  3.4588827119947443e-02
    x[2,10]   findWorstP[3,2]  -6.5201662432064059e-02
    x[2,11]   allocateEach[11]  1
    x[2,11]   findWorstP[1,2]  -0.0731977818853974
    x[2,11]   findWorstP[2,1]  1.0139540844935034e-01
    x[2,11]   findWorstP[2,3]  1.0139540844935034e-01
    x[2,11]   findWorstP[3,2]  -7.3412865339637548e-02
    x[2,12]   allocateEach[12]  1
    x[2,12]   findWorstP[1,2]  -3.8698706099815149e-02
    x[2,12]   findWorstP[2,1]  6.7607619474839382e-03
    x[2,12]   findWorstP[2,3]  6.7607619474839382e-03
    x[2,12]   findWorstP[3,2]  -1.5803200349985694e-01
    x[3,1]    allocateEach[1]  1
    x[3,1]    findWorstP[1,3]  -8.5648798521256925e-02
    x[3,1]    findWorstP[2,3]  -3.4412598727951417e-02
    x[3,1]    findWorstP[3,1]  1.8306944187376953e-02
    x[3,1]    findWorstP[3,2]  1.8306944187376953e-02
    x[3,2]    allocateEach[2]  1
    x[3,2]    findWorstP[1,3]  -1.3052865064695007e-01
    x[3,2]    findWorstP[2,3]  -1.3974911485284927e-01
    x[3,2]    findWorstP[3,1]  9.0760714105433168e-02
    x[3,2]    findWorstP[3,2]  9.0760714105433168e-02
    x[3,3]    allocateEach[3]  1
    x[3,3]    findWorstP[1,3]  -2.3231053604436225e-02
    x[3,3]    findWorstP[2,3]  -5.2932600650442967e-02
    x[3,3]    findWorstP[3,1]  8.4635964395685728e-02
    x[3,3]    findWorstP[3,2]  8.4635964395685728e-02
    x[3,4]    allocateEach[4]  1
    x[3,4]    findWorstP[1,3]  -1.3502402957486137e-01
    x[3,4]    findWorstP[2,3]  -8.9828417629247481e-02
    x[3,4]    findWorstP[3,1]  2.3943733068600558e-02
    x[3,4]    findWorstP[3,2]  2.3943733068600558e-02
    x[3,5]    allocateEach[5]  1
    x[3,5]    findWorstP[1,3]  -9.0868761552680213e-02
    x[3,5]    findWorstP[2,3]  -1.5770839007353527e-01
    x[3,5]    findWorstP[3,1]  1.6451010415439751e-01
    x[3,5]    findWorstP[3,2]  1.6451010415439751e-01
    x[3,6]    allocateEach[6]  1
    x[3,6]    findWorstP[1,3]  -1.1837338262476893e-01
    x[3,6]    findWorstP[2,3]  -9.1254265528124434e-02
    x[3,6]    findWorstP[3,1]  5.5055442445861573e-02
    x[3,6]    findWorstP[3,2]  5.5055442445861573e-02
    x[3,7]    allocateEach[7]  1
    x[3,7]    findWorstP[1,3]  -0.0979075785582255
    x[3,7]    findWorstP[2,3]  -3.4284432624681581e-02
    x[3,7]    findWorstP[3,1]  1.3864818024263429e-02
    x[3,7]    findWorstP[3,2]  1.3864818024263429e-02
    x[3,8]    allocateEach[8]  1
    x[3,8]    findWorstP[1,3]  -6.0036968576709787e-03
    x[3,8]    findWorstP[2,3]  -1.1192104968038576e-01
    x[3,8]    findWorstP[3,1]  1.2143494136056937e-01
    x[3,8]    findWorstP[3,2]  1.2143494136056937e-01
    x[3,9]    allocateEach[9]  1
    x[3,9]    findWorstP[1,3]  -1.4120517560073936e-01
    x[3,9]    findWorstP[2,3]  -8.1081081081081058e-02
    x[3,9]    findWorstP[3,1]  6.3535865120896484e-02
    x[3,9]    findWorstP[3,2]  6.3535865120896484e-02
    x[3,10]   allocateEach[10]  1
    x[3,10]   findWorstP[1,3]  -1.6266173752310537e-04
    x[3,10]   findWorstP[2,3]  -3.4588827119947443e-02
    x[3,10]   findWorstP[3,1]  6.5201662432064059e-02
    x[3,10]   findWorstP[3,2]  6.5201662432064059e-02
    x[3,11]   allocateEach[11]  1
    x[3,11]   findWorstP[1,3]  -0.0731977818853974
    x[3,11]   findWorstP[2,3]  -1.0139540844935034e-01
    x[3,11]   findWorstP[3,1]  7.3412865339637548e-02
    x[3,11]   findWorstP[3,2]  7.3412865339637548e-02
    x[3,12]   allocateEach[12]  1
    x[3,12]   findWorstP[1,3]  -3.8698706099815149e-02
    x[3,12]   findWorstP[2,3]  -6.7607619474839382e-03
    x[3,12]   findWorstP[3,1]  1.5803200349985694e-01
    x[3,12]   findWorstP[3,2]  1.5803200349985694e-01
    MARKER    'MARKER'                 'INTEND'
RHS
    RHS1      allocateEach[1]  1
    RHS1      allocateEach[2]  1
    RHS1      allocateEach[3]  1
    RHS1      allocateEach[4]  1
    RHS1      allocateEach[5]  1
    RHS1      allocateEach[6]  1
    RHS1      allocateEach[7]  1
    RHS1      allocateEach[8]  1
    RHS1      allocateEach[9]  1
    RHS1      allocateEach[10]  1
    RHS1      allocateEach[11]  1
    RHS1      allocateEach[12]  1
    RHS1      allocateAllCash  1
BOUNDS
 UP BND1      z         1
 MI BND1      cashProportion[1]
 UP BND1      cashProportion[1]  1
 MI BND1      cashProportion[2]
 UP BND1      cashProportion[2]  1
 MI BND1      cashProportion[3]
 UP BND1      cashProportion[3]  1
 BV BND1      x[1,1]  
 BV BND1      x[1,2]  
 BV BND1      x[1,3]  
 BV BND1      x[1,4]  
 BV BND1      x[1,5]  
 BV BND1      x[1,6]  
 BV BND1      x[1,7]  
 BV BND1      x[1,8]  
 BV BND1      x[1,9]  
 BV BND1      x[1,10] 
 BV BND1      x[1,11] 
 BV BND1      x[1,12] 
 BV BND1      x[2,1]  
 BV BND1      x[2,2]  
 BV BND1      x[2,3]  
 BV BND1      x[2,4]  
 BV BND1      x[2,5]  
 BV BND1      x[2,6]  
 BV BND1      x[2,7]  
 BV BND1      x[2,8]  
 BV BND1      x[2,9]  
 BV BND1      x[2,10] 
 BV BND1      x[2,11] 
 BV BND1      x[2,12] 
 BV BND1      x[3,1]  
 BV BND1      x[3,2]  
 BV BND1      x[3,3]  
 BV BND1      x[3,4]  
 BV BND1      x[3,5]  
 BV BND1      x[3,6]  
 BV BND1      x[3,7]  
 BV BND1      x[3,8]  
 BV BND1      x[3,9]  
 BV BND1      x[3,10] 
 BV BND1      x[3,11] 
 BV BND1      x[3,12] 
ENDATA
